p cnf 217 50
126 -165 -108 0
-142 194 -134 0
3 -26 -110 0
-120 -29 102 0
110 -29 83 0
-157 217 138 0
151 110 133 0
190 -150 -95 0
25 213 -53 0
35 -4 -20 0
-45 2 208 0
56 -192 208 0
80 35 -95 0
-136 100 -173 0
-102 -87 -133 0
137 53 -108 0
142 -95 -33 0
-216 -202 145 0
111 -196 -18 0
-162 123 -47 0
-50 159 27 0
180 -131 -110 0
-130 -58 -50 0
69 -153 -158 0
157 126 -57 0
133 191 34 0
180 -198 110 0
-184 156 176 0
170 11 -141 0
-206 171 -45 0
-71 -205 -6 0
158 -40 156 0
154 46 -97 0
-42 24 -124 0
-14 -131 -184 0
34 -116 -85 0
-150 -146 131 0
29 130 104 0
186 8 127 0
-198 15 146 0
54 22 -7 0
-153 101 143 0
-72 -69 -154 0
-85 -137 -155 0
-131 135 -8 0
-142 -169 -12 0
188 -90 48 0
-141 73 45 0
94 106 87 0
-41 217 -206 0
